139 300 15 43 35 27 47 33 42 25 21 47 39 17 26 21 10 39 46 22 18 47 12 39 47 49 11 43 11 14 38 46 11 43 39 38 22 37 21 15 13 32 11 43 39 27 13 41 18 10 13 26 50 17 16 48 15 17 40 18 21 29 14 25 24 45 12 38 33 25 43 36 49 47 28 37 23 33 30 31 36 35 49 35 42 14 32 50 23 23 17 37 42 23 11 17 19 15 45 42 31 40 28 29 36 48 18 10 33 38 34 18 24 32 43 15 39 26 14 11 39 24 38 32 37 41 42 47 47 36 38 29 27 17 48 12 15 17 15 38 47 